(set-logic HORN)
(declare-fun state (Int (Array Int Int) (Array Int Int) (Array Int Int) (Array Int Int) Int Int (Array Int Int) (Array Int Int) Int Int Int Int Int Int Int Int Int Int Int Int Int Int Int Int Bool Bool Bool Bool Bool (Array Int Int)) Bool)
(assert (forall ((|A_17| Int) (|B_17| (Array Int Int)) (|C_17| (Array Int Int)) (|D_17| (Array Int Int)) (|E_17| (Array Int Int)) (|F_17| Int) (|G_17| Int) (|H_17| (Array Int Int)) (|I_17| (Array Int Int)) (|J_17| Int) (|K_17| Int) (|L_17| Int) (|M_17| Int) (|N_17| Int) (|O_17| Int) (|P_17| Int) (|Q_17| Int) (|R_17| Int) (|S_17| Int) (|T_17| Int) (|U_17| Int) (|V_17| Int) (|W_17| Int) (|X_17| Int) (|Y_17| Int) (|A1_9| Bool) (|.loc.5| Bool) (|.loc.6| Bool) (|.loc.7| Bool) (|.loc.8| Bool) (|A1_0| (Array Int Int)) (|.x.445| Int) (|.x.443| (Array Int Int)) (|.x.441| Int) (|.x.439| (Array Int Int)) (|.x.435| Int) (|.x.437| (Array Int Int)) (|.x.436| (Array Int Int)) (|Z_17| Bool) (|.x.446| Int) (|.x.452| Int) (|.x.453| Int) (|.x.454| Int) (|.x.456| Int) (|.x.458| Int) (|.loc.10| Bool) (|.x.457| Int) (|.x.447| Int) (|.x.459| Int) (|.loc.12| Bool) (|.loc.9| Bool) (|.loc.11| Bool) (|.x.451| Int) (|.x.448| Int) (|.x.449| Int) (|.x.438| (Array Int Int)) (|.x.450| Int) (|.x.455| Int) (|.x.444| Int) (|.x.440| Int) (|.x.442| (Array Int Int)) (|.xtv.1| (Array Int Int))) (=> (and (and (and (and .loc.5 (not .loc.6)) (not .loc.7)) (not .loc.8)) (and (and (and (and (and (= D_17 E_17) (not A1_9)) (= J_17 K_17)) (= F_17 G_17)) (= H_17 I_17)) (= B_17 C_17))) (state |A_17| |B_17| |C_17| |D_17| |E_17| |F_17| |G_17| |H_17| |I_17| |J_17| |K_17| |L_17| |M_17| |N_17| |O_17| |P_17| |Q_17| |R_17| |S_17| |T_17| |U_17| |V_17| |W_17| |X_17| |Y_17| |A1_9| |.loc.5| |.loc.6| |.loc.7| |.loc.8| |A1_0|))))
(assert (forall ((|A_17| Int) (|B_17| (Array Int Int)) (|C_17| (Array Int Int)) (|D_17| (Array Int Int)) (|E_17| (Array Int Int)) (|F_17| Int) (|G_17| Int) (|H_17| (Array Int Int)) (|I_17| (Array Int Int)) (|J_17| Int) (|K_17| Int) (|L_17| Int) (|M_17| Int) (|N_17| Int) (|O_17| Int) (|P_17| Int) (|Q_17| Int) (|R_17| Int) (|S_17| Int) (|T_17| Int) (|U_17| Int) (|V_17| Int) (|W_17| Int) (|X_17| Int) (|Y_17| Int) (|A1_9| Bool) (|.loc.5| Bool) (|.loc.6| Bool) (|.loc.7| Bool) (|.loc.8| Bool) (|A1_0| (Array Int Int)) (|.x.445| Int) (|.x.443| (Array Int Int)) (|.x.441| Int) (|.x.439| (Array Int Int)) (|.x.435| Int) (|.x.437| (Array Int Int)) (|.x.436| (Array Int Int)) (|Z_17| Bool) (|.x.446| Int) (|.x.452| Int) (|.x.453| Int) (|.x.454| Int) (|.x.456| Int) (|.x.458| Int) (|.loc.10| Bool) (|.x.457| Int) (|.x.447| Int) (|.x.459| Int) (|.loc.12| Bool) (|.loc.9| Bool) (|.loc.11| Bool) (|.x.451| Int) (|.x.448| Int) (|.x.449| Int) (|.x.438| (Array Int Int)) (|.x.450| Int) (|.x.455| Int) (|.x.444| Int) (|.x.440| Int) (|.x.442| (Array Int Int)) (|.xtv.1| (Array Int Int))) (=> (and (state |A_17| |B_17| |C_17| |D_17| |E_17| |F_17| |G_17| |H_17| |I_17| |J_17| |K_17| |L_17| |M_17| |N_17| |O_17| |P_17| |Q_17| |R_17| |S_17| |T_17| |U_17| |V_17| |W_17| |X_17| |Y_17| |A1_9| |.loc.5| |.loc.6| |.loc.7| |.loc.8| |A1_0|) (let ((.def_41 (not .loc.6))) (let ((.def_43 (not .loc.7))) (let ((.def_45 (not .loc.8))) (let ((.def_77 (= B_17 .x.436))) (let ((.def_81 (= L_17 .x.446))) (let ((.def_84 (= R_17 .x.452))) (let ((.def_87 (= S_17 .x.453))) (let ((.def_90 (= T_17 .x.454))) (let ((.def_93 (= V_17 .x.456))) (let ((.def_96 (= X_17 .x.458))) (let ((.def_98 (not .loc.5))) (let ((.def_110 (= A1_9 Z_17))) (let ((.def_119 (= M_17 0))) (let ((.def_121 (and .def_77 .def_81))) (let ((.def_126 (and .def_96 (and .def_93 (and .def_90 (and .def_87 (and .def_84 .def_121))))))) (let ((.def_131 (not .loc.10))) (let ((.def_137 (= W_17 .x.457))) (let ((.def_139 (= M_17 .x.447))) (let ((.def_142 (= Y_17 .x.459))) (let ((.def_147 (not .loc.9))) (let ((.def_150 (not .loc.11))) (let ((.def_162 (select D_17 V_17))) (let ((.def_167 (<= 100000 Q_17))) (let ((.def_181 (not .loc.12))) (let ((.def_186 (= Q_17 .x.451))) (let ((.def_188 (= N_17 .x.448))) (let ((.def_196 (and .def_121 .def_139))) (let ((.def_216 (and .def_188 .def_196))) (let ((.def_235 (and A1_9 .def_77))) (let ((.def_246 (and .def_142 (and .def_96 (and .def_137 (and .def_93 (and .def_90 (and .def_87 (and .def_84 (and .def_186 (and .def_188 (and .def_139 (and .def_81 .def_235))))))))))))) (let ((.def_265 (and .def_142 (and .def_96 (and .def_137 (and .def_93 (and .def_90 (and .def_87 (and .def_84 (and .def_186 .def_216)))))))))) (let ((.def_289 (and .def_41 (and .def_98 (and .loc.7 .def_265))))) (let ((.def_296 (<= 100000 O_17))) (let ((.def_297 (or A1_9 .def_296))) (let ((.def_301 (= O_17 .x.449))) (let ((.def_303 (= D_17 .x.438))) (let ((.def_306 (= P_17 .x.450))) (let ((.def_309 (= U_17 .x.455))) (let ((.def_314 (select D_17 S_17))) (let ((.def_321 (not .def_296))) (let ((.def_326 (= (+ O_17 (* (- 1) .x.449)) (- 1)))) (let ((.def_342 (and .def_188 (and .def_139 (and .def_81 (and .def_77 .def_303)))))) (let ((.def_353 (and .def_142 (and .def_96 (and .def_137 (and .def_93 (and .def_309 (and .def_90 (and .def_87 (and .def_84 (and .def_186 (and .def_306 (and .def_301 .def_342))))))))))))) (let ((.def_379 (and .def_142 (and .def_96 (and .def_137 (and .def_93 (and .def_309 (and .def_90 (and .def_87 (and .def_84 (and .def_186 (and .def_306 (and .def_301 (and .def_188 (and .def_139 (and .def_81 (and .def_235 .def_303))))))))))))))))) (let ((.def_390 (= .x.449 0))) (let ((.def_496 (store A1_0 .x.453 1))) (and (and (= K_17 .x.445) (and (= I_17 .x.443) (and (= G_17 .x.441) (and (= E_17 .x.439) (and (= A_17 .x.435) (= C_17 .x.437)))))) (or (and (or (or (or (or (or (or (or (and (or (or (or (or (or (or (and (or (and (or (and (or (and (and (and (and (and (and (and (and .def_77 Z_17) .def_81) .def_84) .def_87) .def_90) .def_93) .def_96) .def_98) (and (or A1_9 (and (= .x.454 0) (= .x.436 (store (store B_17 S_17 0) V_17 0)))) (and (and .loc.5 (or Z_17 (= .x.452 .x.454))) .def_110))) (and (and .def_43 (and .loc.8 .def_41)) .loc.10)) (and (or A1_9 .def_119) (and .def_45 (and (and .def_110 (and .loc.7 (and .loc.6 (and .loc.5 .def_126)))) .def_131)))) (and (and (and (and (and .def_137 .def_139) .def_142) .loc.12) .def_147) .def_150)) (and (or A1_9 (and (= .x.457 .x.447) (and (= .x.457 (ite (= .x.459 42) 1 0)) (and (= .x.459 (select .def_162 (+ (* 4 Q_17) X_17))) (not .def_167))))) (and (and .def_45 (and .def_110 (and .loc.11 (and .loc.10 (and .loc.9 (and .def_98 (and .loc.7 (and .loc.6 .def_126)))))))) .def_181))) (and .def_186 .def_188)) (and (or Z_17 (= (+ Q_17 (* (- 1) .x.451)) (- 1))) (and .def_181 (and .def_45 (and .def_110 (and .def_147 (and .loc.11 (and .loc.10 (and .def_43 (and .def_41 (and .def_98 (and .def_96 (and .def_137 (and .def_93 (and .def_90 (and .def_87 (and .def_84 .def_196))))))))))))))))) (and (or A1_9 (= .x.451 0)) (and .def_181 (and .def_45 (and .def_110 (and .def_147 (and .loc.11 (and .loc.10 (and .def_41 (and .loc.7 (and .loc.5 (and .def_142 (and .def_96 (and .def_137 (and .def_93 (and .def_90 (and .def_87 (and .def_84 .def_216)))))))))))))))))) (and .def_45 (and .def_131 (and .def_110 (and .def_150 (and .loc.12 (and .loc.9 (and .def_98 (and .loc.7 (and .loc.6 .def_246)))))))))) (and (or A1_9 .def_167) (and .def_45 (and .def_131 (and .def_110 (and .def_150 (and .loc.12 (and .loc.9 (and .def_98 (and .loc.7 (and .loc.6 .def_265))))))))))) (and .def_181 (and .def_45 (and .def_131 (and .def_110 (and .loc.11 (and .loc.9 (and .def_41 (and .def_98 (and .loc.7 .def_246)))))))))) (and (and .def_181 (and .def_45 (and .def_131 (and .def_110 (and .loc.11 (and .loc.9 .def_289)))))) .def_297)) (and (and (and .def_301 .def_303) .def_306) .def_309)) (and (or A1_9 (and (= .x.438 (store D_17 V_17 (store .def_162 (+ (* 4 O_17) X_17) (select .def_314 (+ L_17 (* 4 O_17)))))) .def_321)) (and (or Z_17 .def_326) (and .def_181 (and .def_45 (and .def_131 (and .def_110 (and .def_147 (and .loc.11 .def_289))))))))) (and (or A1_9 (not .def_119)) (and .def_181 (and .def_45 (and .def_131 (and .def_110 (and .def_150 (and .def_147 (and .loc.7 (and .loc.6 (and .loc.5 .def_353))))))))))) (and .def_181 (and .def_131 (and .def_110 (and .def_150 (and .def_147 (and .def_43 (and .def_41 (and .def_98 (and .loc.8 .def_379)))))))))) (and (or A1_9 .def_390) (and .def_181 (and .def_45 (and .def_131 (and .def_110 (and .def_147 (and .loc.11 (and .def_43 (and .loc.6 (and .loc.5 (and .def_142 (and .def_96 (and .def_137 (and .def_93 (and .def_309 (and .def_90 (and .def_87 (and .def_84 (and .def_186 (and .def_306 .def_342))))))))))))))))))))) (and .def_181 (and .def_45 (and .def_110 (and .def_150 (and .loc.10 (and .loc.9 (and .def_43 (and .def_98 (and .loc.6 .def_379)))))))))) (and .def_297 (and .def_181 (and .def_45 (and .def_110 (and .def_150 (and .loc.10 (and .loc.9 (and .def_43 (and .def_98 (and .loc.6 .def_353))))))))))) (and (or A1_9 (and (= .x.438 (store D_17 S_17 (store .def_314 (+ L_17 (* 4 O_17)) 42))) (and .def_321 .def_326))) (and .def_181 (and .def_45 (and .def_110 (and .def_150 (and .def_147 (and .loc.10 (and .def_43 (and .def_98 (and .loc.6 (and .def_142 (and .def_96 (and .def_137 (and .def_93 (and .def_309 (and .def_90 (and .def_87 (and .def_84 (and .def_186 (and .def_216 .def_306))))))))))))))))))))) (and (= J_17 .x.444) (and (= F_17 .x.440) (= H_17 .x.442)))) (and (or A1_9 (and (and (= .x.444 0) (= .x.440 0)) (= A1_0 (store B_17 0 0)))) (and (or Z_17 (and (and (and (and (and (and (and .def_390 (and (and (and (not (<= .x.435 .x.456)) (not (<= .x.435 .x.453))) (not (= .x.453 0))) (not (= .x.456 0)))) (= .x.446 0)) (= .x.458 0)) (= (select A1_0 .x.453) 0)) (= (select .def_496 .x.456) 0)) (= .x.436 (store .def_496 .x.456 1))) (= .x.442 (store (store H_17 .x.453 400000) .x.456 400000)))) (and .def_181 (and .def_45 (and .def_110 (and .def_150 (and .def_147 (and .loc.10 (and .def_43 (and .def_41 (and .loc.5 (and .def_137 (and .def_84 (and .def_139 .def_303))))))))))))))))))))))))))))))))))))))))))))))))))))))))))))))) (state |.x.435| |.x.436| |.x.437| |.x.438| |.x.439| |.x.440| |.x.441| |.x.442| |.x.443| |.x.444| |.x.445| |.x.446| |.x.447| |.x.448| |.x.449| |.x.450| |.x.451| |.x.452| |.x.453| |.x.454| |.x.455| |.x.456| |.x.457| |.x.458| |.x.459| |Z_17| |.loc.9| |.loc.10| |.loc.11| |.loc.12| |.xtv.1|))))
(assert (forall ((|A_17| Int) (|B_17| (Array Int Int)) (|C_17| (Array Int Int)) (|D_17| (Array Int Int)) (|E_17| (Array Int Int)) (|F_17| Int) (|G_17| Int) (|H_17| (Array Int Int)) (|I_17| (Array Int Int)) (|J_17| Int) (|K_17| Int) (|L_17| Int) (|M_17| Int) (|N_17| Int) (|O_17| Int) (|P_17| Int) (|Q_17| Int) (|R_17| Int) (|S_17| Int) (|T_17| Int) (|U_17| Int) (|V_17| Int) (|W_17| Int) (|X_17| Int) (|Y_17| Int) (|A1_9| Bool) (|.loc.5| Bool) (|.loc.6| Bool) (|.loc.7| Bool) (|.loc.8| Bool) (|A1_0| (Array Int Int)) (|.x.445| Int) (|.x.443| (Array Int Int)) (|.x.441| Int) (|.x.439| (Array Int Int)) (|.x.435| Int) (|.x.437| (Array Int Int)) (|.x.436| (Array Int Int)) (|Z_17| Bool) (|.x.446| Int) (|.x.452| Int) (|.x.453| Int) (|.x.454| Int) (|.x.456| Int) (|.x.458| Int) (|.loc.10| Bool) (|.x.457| Int) (|.x.447| Int) (|.x.459| Int) (|.loc.12| Bool) (|.loc.9| Bool) (|.loc.11| Bool) (|.x.451| Int) (|.x.448| Int) (|.x.449| Int) (|.x.438| (Array Int Int)) (|.x.450| Int) (|.x.455| Int) (|.x.444| Int) (|.x.440| Int) (|.x.442| (Array Int Int)) (|.xtv.1| (Array Int Int))) (=> (state |A_17| |B_17| |C_17| |D_17| |E_17| |F_17| |G_17| |H_17| |I_17| |J_17| |K_17| |L_17| |M_17| |N_17| |O_17| |P_17| |Q_17| |R_17| |S_17| |T_17| |U_17| |V_17| |W_17| |X_17| |Y_17| |A1_9| |.loc.5| |.loc.6| |.loc.7| |.loc.8| |A1_0|) (not (and A1_9 (and .loc.8 (and (not .loc.7) (and .loc.6 (not .loc.5)))))))))
(check-sat)
